nServices=10;
nDrivers=10;
nBuses=10;
startTime=[199 6 102 71 142 108 57 107 2 118];
durationTime=[21 10 30 17 13 29 20 29 24 30];
durationDist=[39 26 23 23 59 37 58 57 50 29];
passangers=[16 24 10 19 2 12 21 24 20 11];
capacity=[20 18 27 21 15 24 23 27 26 10];
costTime=[9 9 6 6 6 9 9 6 9 7];
costDist=[4 3 3 6 3 4 6 6 4 5];
maxTime=[36 24 57 41 40 25 52 33 27 34];
costBM=[6 8 8 7 5 5 6 8 8 5];
costEM=[11 9 11 10 10 9 9 12 12 11];
BM=[12 12 14 20 11 20 20 11 10 12];
